2 
3 
2 3 1694498818 
1.000000000000000000e+00 2.000000000000000000e+00 
0 1 1 1 2.000000000000000000e+00 
0 1 1 2 6.790386532669881475e-313 
0 2 1 1 4.000000000000000000e+00 
0 2 1 3 1.310247471439245436e+272 
0 2 2 2 3.000000000000000000e+00 
0 2 2 3 1.730260756202458962e+212 
0 2 3 3 3.952525166729972353e-322 
